\ENCODING=ISO-8859-1
\Problem name: c:\git\OCDT\MIPmodel\cSharp\ODTMIPmodel\bin\Debug\net6.0\nath_jones.lp

Minimize
 Obj: x0 + x1 + x2 + x3 + x4 + x5 + x6 + x7 + x8 + x9 + x10 + x11 + x12 + x13
      + x14 + x15 + x16 + x17 + x18 + x19 + x20 + x21 + x22 + x23 + x24 + x25
      + x26 + x27 + x28 + x29 + x30 + x31 + x32 + x33 + x34 + x35 + x36 + x37
      + x38 + x39 + x40 + x41 + x42 + x43 + x44 + x45 + x46 + x47 + x48 + x49
      + x50 + x51 + x52 + x53 + x54 + x55 + x56 + x57 + x58 + x59
Subject To
 c0:   x0 + x13 + x30 + x31 + x32 + x33 + x34 + x35 + x36 + x37 + x38 + x52
       >= 1
 c1:   x0 + x1 + x2 + x3 + x4 + x5 + x6 + x7 + x8 + x9 + x10 + x11 + x12 + x13
       + x14 + x15 + x16 + x17 + x18 + x19 + x20 + x21 + x22 + x23 + x24 + x25
       + x26 + x27 + x30 + x31 + x32 + x33 + x34 + x35 + x36 + x37 + x38 + x51
       >= 1
 c2:   x0 + x1 + x2 + x3 + x4 + x5 + x6 + x7 + x8 + x9 + x10 + x13 + x14 + x15
       + x16 + x17 + x18 + x19 + x20 + x21 + x32 + x33 + x34 + x35 + x36 + x37
       + x38 + x40 >= 1
 c3:   x0 + x13 + x32 + x33 + x34 + x35 + x36 + x37 + x38 + x40 + x41 + x42
       + x43 + x44 + x45 + x46 + x47 + x48 + x49 + x50 + x51 + x52 >= 1
 c4:   x0 + x1 + x2 + x3 + x4 + x5 + x6 + x7 + x8 + x9 + x10 + x11 + x12 + x13
       + x14 + x15 + x16 + x17 + x18 + x19 + x20 + x21 + x22 + x23 + x31 + x40
       >= 1
 c5:   x0 + x1 + x2 + x3 + x4 + x5 + x6 + x7 + x8 + x9 + x10 + x13 + x14 + x15
       + x16 + x17 + x18 + x19 + x20 + x21 + x32 + x33 + x34 + x35 + x36 + x37
       + x38 + x39 >= 1
 c6:   x6 + x17 + x30 + x31 + x32 + x33 + x34 + x35 + x36 + x50 + x51 + x52
       + x53 + x54 >= 1
 c7:   x5 + x17 + x18 + x19 + x30 + x31 + x32 + x33 + x34 + x35 + x36 + x47
       + x48 + x49 >= 1
 c8:   x6 + x7 + x8 + x9 + x10 + x17 + x18 + x19 + x20 + x21 + x22 + x23 + x30
       + x31 + x32 + x33 + x34 + x35 + x36 + x37 + x38 + x49 >= 1
 c9:   x6 + x7 + x8 + x9 + x10 + x17 + x18 + x19 + x20 + x21 + x22 + x23 + x30
       + x31 + x32 + x50 + x51 + x52 + x53 + x54 >= 1
 c10:  x3 + x4 + x5 + x16 + x30 + x31 + x32 + x33 + x34 + x35 + x36 + x37 + x38
       + x50 + x51 + x52 + x53 + x54 >= 1
 c11:  x6 + x7 + x8 + x16 + x29 + x43 + x44 + x45 + x46 + x47 + x48 + x49 >= 1
 c12:  x6 + x7 + x8 + x9 + x10 + x17 + x18 + x19 + x20 + x21 + x22 + x23 + x30
       + x31 + x32 + x47 + x48 + x49 >= 1
 c13:  x6 + x7 + x8 + x9 + x10 + x11 + x12 + x17 + x18 + x19 + x20 + x21 + x22
       + x23 + x24 + x25 + x30 + x31 + x32 + x33 + x34 + x35 + x36 + x37 + x38
       + x50 + x51 + x52 >= 1
 c14:  x6 + x7 + x8 + x9 + x10 + x11 + x12 + x17 + x18 + x19 + x20 + x21 + x22
       + x23 + x30 + x41 + x42 + x43 + x44 + x45 + x46 + x47 + x48 + x49 >= 1
 c15:  x6 + x7 + x8 + x9 + x10 + x11 + x12 + x17 + x18 + x19 + x20 + x21 + x22
       + x23 + x24 + x25 + x26 + x27 + x30 + x31 + x32 + x33 + x34 + x35 + x36
       + x37 + x38 + x50 >= 1
 c16:  x4 + x13 + x14 + x15 + x16 + x17 + x18 + x19 + x32 + x33 + x34 + x35
       + x36 + x42 + x43 + x44 + x45 + x46 >= 1
 c17:  x4 + x5 + x6 + x7 + x8 + x13 + x14 + x15 + x29 + x30 + x31 + x42 >= 1
 c18:  x2 + x3 + x4 + x5 + x6 + x7 + x8 + x9 + x10 + x13 + x14 + x15 + x16
       + x17 + x18 + x19 + x20 + x21 + x22 + x23 + x32 + x33 + x34 + x35 + x36
       + x37 + x38 + x57 >= 1
 c19:  x2 + x3 + x4 + x5 + x6 + x13 + x14 + x15 + x16 + x17 + x18 + x19 + x20
       + x21 + x32 + x33 + x34 + x35 + x36 + x37 + x38 + x58 >= 1
 c20:  x2 + x13 + x14 + x15 + x32 + x33 + x34 + x35 + x36 + x37 + x38 + x55
       + x56 + x57 >= 1
 c21:  x2 + x3 + x4 + x5 + x6 + x7 + x8 + x9 + x10 + x15 + x16 + x17 + x18
       + x19 + x20 + x21 + x30 + x31 + x32 + x33 + x34 + x35 + x36 + x37 + x38
       + x44 >= 1
 c22:  x2 + x3 + x4 + x15 + x16 + x17 + x18 + x19 + x30 + x31 + x32 + x33 + x34
       + x35 + x36 + x44 + x45 + x46 >= 1
 c23:  x2 + x15 + x30 + x31 + x32 + x33 + x34 + x35 + x36 + x37 + x38 + x44
       + x45 + x46 + x47 + x48 + x49 + x50 + x51 + x52 + x53 + x54 >= 1
 c24:  x2 + x3 + x4 + x5 + x6 + x7 + x8 + x15 + x29 + x43 >= 1
 c25:  x1 + x14 + x30 + x31 + x32 + x33 + x34 + x35 + x36 + x37 + x38 + x44
       + x45 + x46 + x47 + x48 + x49 + x50 + x51 + x52 >= 1
 c26:  x2 + x3 + x4 + x5 + x6 + x7 + x8 + x9 + x10 + x11 + x12 + x15 + x16
       + x17 + x18 + x19 + x20 + x21 + x22 + x23 + x30 + x41 + x42 + x43 >= 1
 c27:  x4 + x5 + x6 + x15 + x16 + x17 + x32 + x33 + x34 + x35 + x36 + x50 + x51
       + x52 + x53 + x54 >= 1
 c28:  x4 + x15 + x16 + x17 + x18 + x19 + x32 + x33 + x34 + x35 + x36 + x47
       + x48 + x49 >= 1
 c29:  x4 + x5 + x6 + x7 + x8 + x9 + x10 + x15 + x16 + x17 + x18 + x19 + x20
       + x21 + x22 + x23 + x32 + x33 + x34 + x35 + x36 + x37 + x38 + x49 >= 1
 c30:  x4 + x5 + x6 + x7 + x8 + x9 + x10 + x15 + x16 + x17 + x18 + x19 + x20
       + x21 + x22 + x23 + x32 + x50 + x51 + x52 + x53 + x54 >= 1
 c31:  x3 + x15 + x32 + x33 + x34 + x35 + x36 + x37 + x38 + x50 + x51 + x52
       + x53 + x54 >= 1
 c32:  x4 + x5 + x6 + x7 + x8 + x15 + x29 + x30 + x31 + x43 + x44 + x45 + x46
       + x47 + x48 + x49 >= 1
 c33:  x4 + x5 + x6 + x7 + x8 + x9 + x10 + x15 + x16 + x17 + x18 + x19 + x20
       + x21 + x22 + x23 + x32 + x47 + x48 + x49 >= 1
 c34:  x4 + x5 + x6 + x7 + x8 + x9 + x10 + x11 + x12 + x15 + x16 + x17 + x18
       + x19 + x20 + x21 + x22 + x23 + x24 + x25 + x32 + x33 + x34 + x35 + x36
       + x37 + x38 + x50 + x51 + x52 >= 1
 c35:  x1 + x2 + x3 + x14 + x32 + x33 + x34 + x35 + x36 + x37 + x38 + x50 + x51
       + x52 >= 1
 c36:  x4 + x5 + x6 + x7 + x8 + x9 + x10 + x11 + x12 + x15 + x16 + x17 + x18
       + x19 + x20 + x21 + x22 + x23 + x24 + x25 + x26 + x27 + x32 + x33 + x34
       + x35 + x36 + x37 + x38 + x50 >= 1
 c37:  x6 + x17 + x32 + x33 + x34 + x35 + x36 + x46 + x47 + x48 + x49 + x50
       + x51 + x52 + x53 + x54 >= 1
 c38:  x6 + x7 + x8 + x9 + x10 + x17 + x18 + x19 + x20 + x21 + x32 + x33 + x34
       + x35 + x36 + x37 + x38 + x45 >= 1
 c39:  x5 + x17 + x18 + x19 + x32 + x33 + x34 + x35 + x36 + x46 >= 1
 c40:  x3 + x4 + x5 + x16 + x32 + x33 + x34 + x35 + x36 + x37 + x38 + x46 + x47
       + x48 + x49 + x50 + x51 + x52 + x53 + x54 >= 1
 c41:  x6 + x7 + x8 + x16 + x29 + x30 + x31 + x43 + x44 + x45 >= 1
 c42:  x6 + x7 + x8 + x9 + x10 + x17 + x18 + x19 + x20 + x21 + x22 + x23 + x32
       + x46 >= 1
 c43:  x6 + x7 + x8 + x9 + x10 + x17 + x18 + x19 + x20 + x21 + x22 + x23 + x32
       + x33 + x34 + x45 >= 1
 c44:  x1 + x13 + x32 + x33 + x34 + x35 + x36 + x37 + x38 + x50 + x51 + x52
       >= 1
 c45:  x2 + x3 + x4 + x5 + x6 + x7 + x8 + x13 + x14 + x15 + x28 + x40 + x41
       + x42 >= 1
 c46:  x2 + x3 + x4 + x5 + x6 + x7 + x8 + x9 + x10 + x13 + x14 + x15 + x16
       + x17 + x18 + x19 + x20 + x21 + x28 + x29 + x30 + x31 + x32 + x33 + x34
       + x35 + x36 + x37 + x38 + x40 >= 1
 c47:  x2 + x3 + x4 + x5 + x6 + x7 + x8 + x9 + x10 + x11 + x12 + x13 + x14
       + x15 + x16 + x17 + x18 + x19 + x20 + x21 + x22 + x23 + x28 + x29 + x30
       + x40 >= 1
 c48:  x2 + x3 + x4 + x5 + x6 + x7 + x8 + x9 + x10 + x13 + x14 + x15 + x16
       + x17 + x18 + x19 + x20 + x21 + x28 + x29 + x30 + x31 + x32 + x33 + x34
       + x35 + x36 + x37 + x38 + x39 >= 1
 c49:  x6 + x18 + x32 + x33 + x34 + x35 + x36 + x42 + x43 + x44 + x45 + x46
       + x47 + x48 + x49 + x50 + x51 + x52 + x53 + x54 >= 1
 c50:  x6 + x7 + x8 + x9 + x10 + x19 + x20 + x21 + x32 + x33 + x34 + x35 + x36
       + x37 + x38 + x42 + x43 + x44 >= 1
 c51:  x6 + x19 + x20 + x21 + x32 + x33 + x34 + x35 + x36 + x37 + x38 + x42
       + x43 + x44 + x45 + x46 + x47 + x48 + x49 + x50 + x51 + x52 + x53 + x54
       + x55 + x56 + x57 + x58 >= 1
 c52:  x5 + x19 + x32 + x33 + x34 + x35 + x36 + x42 + x43 + x44 + x45 + x46
       >= 1
 c53:  x6 + x7 + x8 + x16 + x17 + x18 + x29 + x30 + x31 + x42 >= 1
 c54:  x6 + x7 + x8 + x19 + x20 + x21 + x22 + x23 + x32 + x33 + x34 + x35 + x36
       + x37 + x38 + x42 + x43 + x44 + x45 + x46 + x47 + x48 + x49 + x50 + x51
       + x52 + x53 + x54 >= 1
 c55:  x6 + x7 + x8 + x9 + x10 + x19 + x20 + x21 + x32 + x33 + x34 + x35 + x36
       + x37 + x38 + x41 >= 1
 c56:  x6 + x7 + x8 + x9 + x10 + x19 + x20 + x21 + x22 + x23 + x32 + x42 + x43
       + x44 + x45 + x46 >= 1
 c57:  x6 + x7 + x8 + x9 + x10 + x11 + x12 + x19 + x20 + x21 + x22 + x23 + x31
       + x41 >= 1
 c58:  x6 + x17 + x37 + x55 + x56 + x57 + x58 + x59 >= 1
 c59:  x6 + x17 + x18 + x19 + x20 + x21 + x38 + x59 >= 1
 c60:  x5 + x17 + x18 + x19 + x37 + x47 + x48 + x49 + x50 + x51 + x52 + x53
       + x54 + x55 + x56 + x57 + x58 + x59 >= 1
 c61:  x3 + x4 + x5 + x16 + x38 + x55 + x56 + x57 + x58 + x59 >= 1
 c62:  x7 + x8 + x9 + x18 + x19 + x20 + x21 + x22 + x34 + x35 + x36 + x44 + x45
       + x46 + x47 + x48 + x49 + x50 + x51 + x52 + x53 + x54 >= 1
 c63:  x10 + x22 + x34 + x35 + x36 + x37 + x38 + x44 >= 1
 c64:  x7 + x8 + x9 + x22 + x34 + x35 + x36 + x37 + x38 + x44 + x45 + x46 + x47
       + x48 + x49 + x50 + x51 + x52 + x53 + x54 + x55 + x56 + x57 + x58 >= 1
 c65:  x5 + x6 + x7 + x8 + x9 + x20 + x21 + x22 + x34 + x35 + x36 + x44 + x45
       + x46 >= 1
 c66:  x9 + x16 + x17 + x18 + x19 + x20 + x21 + x22 + x29 + x30 + x31 + x32
       + x33 + x43 >= 1
 c67:  x9 + x23 + x34 + x35 + x36 + x37 + x38 + x44 + x45 + x46 + x47 + x48
       + x49 + x50 + x51 + x52 + x53 + x54 >= 1
 c68:  x10 + x22 + x34 + x35 + x36 + x37 + x38 + x41 + x42 + x43 >= 1
 c69:  x10 + x23 + x33 + x44 + x45 + x46 >= 1
 c70:  x10 + x11 + x12 + x23 + x31 + x32 + x33 + x41 + x42 + x43 >= 1
 c71:  x10 + x23 + x34 + x44 >= 1
 c72:  x7 + x8 + x9 + x10 + x11 + x18 + x19 + x20 + x21 + x22 + x23 + x24 + x25
       + x26 + x36 + x48 + x49 + x50 + x51 + x52 + x53 + x54 >= 1
 c73:  x12 + x26 + x36 + x37 + x38 + x47 >= 1
 c74:  x11 + x22 + x23 + x24 + x25 + x26 + x36 + x37 + x38 + x45 + x46 + x47
       >= 1
 c75:  x5 + x6 + x7 + x8 + x9 + x10 + x11 + x20 + x21 + x22 + x23 + x24 + x25
       + x26 + x36 + x47 >= 1
 c76:  x11 + x24 + x25 + x26 + x36 + x37 + x38 + x48 >= 1
 c77:  x11 + x24 + x25 + x26 + x33 + x34 + x35 + x48 + x49 + x50 + x51 + x52
       + x53 + x54 >= 1
 c78:  x11 + x24 + x25 + x26 + x33 + x34 + x35 + x47 >= 1
 c79:  x12 + x26 + x36 + x37 + x38 + x48 + x49 + x50 + x51 + x52 >= 1
 c80:  x12 + x24 + x25 + x26 + x31 + x32 + x33 + x34 + x35 + x41 + x42 + x43
       + x44 + x45 + x46 + x47 >= 1
 c81:  x12 + x27 + x36 + x37 + x38 + x48 + x49 + x50 >= 1
 c82:  x11 + x24 + x25 + x26 + x35 + x45 + x46 + x47 >= 1
 c83:  x6 + x18 + x19 + x20 + x32 + x33 + x34 + x35 + x36 + x55 + x56 + x57
       + x58 + x59 >= 1
 c84:  x6 + x21 + x32 + x33 + x34 + x35 + x36 + x37 + x38 + x59 >= 1
 c85:  x5 + x20 + x32 + x33 + x34 + x35 + x36 + x47 + x48 + x49 + x50 + x51
       + x52 + x53 + x54 + x55 + x56 + x57 + x58 + x59 >= 1
 c86:  x6 + x7 + x8 + x9 + x10 + x21 + x22 + x23 + x32 + x55 + x56 + x57 + x58
       + x59 >= 1
 c87:  x6 + x7 + x8 + x9 + x10 + x11 + x12 + x21 + x22 + x23 + x31 + x41 + x42
       + x43 + x44 + x45 + x46 + x47 + x48 + x49 + x50 + x51 + x52 + x53 + x54
       + x55 + x56 + x57 + x58 + x59 >= 1
 c88:  x6 + x17 + x32 + x33 + x34 + x35 + x36 + x55 >= 1
 c89:  x6 + x7 + x8 + x9 + x10 + x17 + x18 + x19 + x20 + x21 + x22 + x23 + x32
       + x33 + x34 + x35 + x36 + x37 + x38 + x56 >= 1
 c90:  x6 + x17 + x18 + x19 + x20 + x21 + x32 + x33 + x34 + x35 + x36 + x37
       + x38 + x56 + x57 + x58 >= 1
 c91:  x5 + x17 + x18 + x19 + x32 + x33 + x34 + x35 + x36 + x47 + x48 + x49
       + x50 + x51 + x52 + x53 + x54 + x55 >= 1
 c92:  x6 + x7 + x8 + x9 + x10 + x17 + x18 + x19 + x20 + x21 + x22 + x23 + x32
       + x55 >= 1
 c93:  x3 + x4 + x5 + x16 + x32 + x33 + x34 + x35 + x36 + x37 + x38 + x55 >= 1
 c94:  x7 + x18 + x19 + x20 + x21 + x22 + x23 + x24 + x30 + x31 + x32 + x33
       + x34 + x35 + x36 + x40 + x41 + x42 + x43 + x44 + x45 + x46 + x47 + x48
       + x49 + x50 + x51 + x52 + x53 + x54 >= 1
 c95:  x8 + x9 + x10 + x11 + x12 + x25 + x30 + x31 + x32 + x33 + x34 + x35
       + x36 + x37 + x38 + x40 + x41 + x42 + x43 + x44 + x45 + x46 >= 1
 c96:  x7 + x22 + x23 + x24 + x30 + x31 + x32 + x33 + x34 + x35 + x36 + x37
       + x38 + x40 + x41 + x42 + x43 + x44 + x45 + x46 + x47 + x48 + x49 + x50
       + x51 + x52 + x53 + x54 + x55 + x56 + x57 + x58 >= 1
 c97:  x5 + x6 + x7 + x20 + x21 + x22 + x23 + x24 + x30 + x31 + x32 + x33 + x34
       + x35 + x36 + x40 + x41 + x42 + x43 + x44 + x45 + x46 >= 1
 c98:  x8 + x16 + x17 + x18 + x19 + x20 + x21 + x22 + x23 + x24 + x29 + x40
       + x41 + x42 >= 1
 c99:  x8 + x24 + x30 + x31 + x32 + x33 + x34 + x35 + x36 + x37 + x38 + x40
       + x41 + x42 + x43 + x44 + x45 + x46 + x47 + x48 + x49 + x50 + x51 + x52
       + x53 + x54 >= 1
 c100: x8 + x9 + x10 + x22 + x23 + x24 + x30 + x31 + x32 + x33 + x34 + x35
       + x36 + x37 + x38 + x40 >= 1
 c101: x8 + x9 + x10 + x24 + x30 + x31 + x32 + x40 + x41 + x42 + x43 + x44
       + x45 + x46 >= 1
 c102: x8 + x9 + x10 + x11 + x12 + x24 + x30 + x40 >= 1
 c103: x8 + x9 + x10 + x24 + x30 + x31 + x32 + x33 + x34 + x40 + x41 + x42
       + x43 + x44 >= 1
 c104: x8 + x9 + x10 + x22 + x23 + x24 + x30 + x31 + x32 + x33 + x34 + x35
       + x36 + x37 + x38 + x39 >= 1
 c105: x2 + x3 + x4 + x5 + x6 + x13 + x14 + x15 + x16 + x17 + x32 + x33 + x34
       + x35 + x36 + x54 >= 1
 c106: x2 + x3 + x4 + x5 + x6 + x7 + x8 + x9 + x10 + x13 + x14 + x15 + x16
       + x17 + x18 + x19 + x20 + x21 + x22 + x23 + x32 + x54 >= 1
 c107: x2 + x13 + x14 + x15 + x32 + x33 + x34 + x35 + x36 + x37 + x38 + x54
       >= 1
 c108: x2 + x3 + x4 + x5 + x6 + x7 + x8 + x9 + x10 + x11 + x12 + x13 + x14
       + x15 + x16 + x17 + x18 + x19 + x20 + x21 + x22 + x23 + x24 + x25 + x32
       + x33 + x34 + x35 + x36 + x37 + x38 + x53 >= 1
 c109: x1 + x13 + x32 + x33 + x34 + x35 + x36 + x37 + x38 + x53 >= 1
Bounds
 0 <= x0 <= 1
 0 <= x1 <= 1
 0 <= x2 <= 1
 0 <= x3 <= 1
 0 <= x4 <= 1
 0 <= x5 <= 1
 0 <= x6 <= 1
 0 <= x7 <= 1
 0 <= x8 <= 1
 0 <= x9 <= 1
 0 <= x10 <= 1
 0 <= x11 <= 1
 0 <= x12 <= 1
 0 <= x13 <= 1
 0 <= x14 <= 1
 0 <= x15 <= 1
 0 <= x16 <= 1
 0 <= x17 <= 1
 0 <= x18 <= 1
 0 <= x19 <= 1
 0 <= x20 <= 1
 0 <= x21 <= 1
 0 <= x22 <= 1
 0 <= x23 <= 1
 0 <= x24 <= 1
 0 <= x25 <= 1
 0 <= x26 <= 1
 0 <= x27 <= 1
 0 <= x28 <= 1
 0 <= x29 <= 1
 0 <= x30 <= 1
 0 <= x31 <= 1
 0 <= x32 <= 1
 0 <= x33 <= 1
 0 <= x34 <= 1
 0 <= x35 <= 1
 0 <= x36 <= 1
 0 <= x37 <= 1
 0 <= x38 <= 1
 0 <= x39 <= 1
 0 <= x40 <= 1
 0 <= x41 <= 1
 0 <= x42 <= 1
 0 <= x43 <= 1
 0 <= x44 <= 1
 0 <= x45 <= 1
 0 <= x46 <= 1
 0 <= x47 <= 1
 0 <= x48 <= 1
 0 <= x49 <= 1
 0 <= x50 <= 1
 0 <= x51 <= 1
 0 <= x52 <= 1
 0 <= x53 <= 1
 0 <= x54 <= 1
 0 <= x55 <= 1
 0 <= x56 <= 1
 0 <= x57 <= 1
 0 <= x58 <= 1
 0 <= x59 <= 1
Binaries
 x0  x1  x2  x3  x4  x5  x6  x7  x8  x9  x10  x11  x12  x13  x14  x15  x16 
 x17  x18  x19  x20  x21  x22  x23  x24  x25  x26  x27  x28  x29  x30  x31 
 x32  x33  x34  x35  x36  x37  x38  x39  x40  x41  x42  x43  x44  x45  x46 
 x47  x48  x49  x50  x51  x52  x53  x54  x55  x56  x57  x58  x59 
End
